c "451103.clq"
p edge 100 384
e 1 5
e 1 6
e 1 8
e 1 10
e 1 15
e 1 23
e 1 26
e 1 32
e 1 33
e 1 38
e 1 49
e 1 56
e 1 78
e 1 82
e 1 94
e 2 5
e 2 6
e 2 7
e 2 10
e 2 30
e 2 31
e 2 44
e 2 78
e 3 5
e 3 11
e 3 18
e 3 97
e 4 5
e 4 6
e 4 7
e 4 11
e 4 12
e 4 13
e 4 18
e 4 19
e 4 20
e 4 21
e 4 23
e 4 25
e 4 27
e 4 29
e 4 32
e 4 35
e 4 37
e 4 39
e 4 41
e 4 52
e 4 53
e 4 60
e 4 64
e 4 71
e 4 77
e 4 80
e 4 84
e 4 95
e 4 98
e 5 6
e 5 7
e 5 8
e 5 9
e 5 11
e 5 12
e 5 15
e 5 16
e 5 19
e 5 21
e 5 22
e 5 23
e 5 25
e 5 28
e 5 48
e 5 56
e 5 66
e 5 70
e 5 81
e 5 88
e 5 93
e 5 96
e 6 7
e 6 8
e 6 9
e 6 11
e 6 15
e 6 16
e 6 17
e 6 21
e 6 22
e 6 25
e 6 28
e 6 35
e 6 42
e 6 43
e 6 51
e 6 58
e 6 62
e 6 65
e 6 67
e 6 75
e 6 79
e 6 83
e 6 89
e 7 8
e 7 9
e 7 10
e 7 13
e 7 14
e 7 16
e 7 22
e 7 27
e 7 31
e 7 33
e 7 34
e 7 40
e 7 43
e 7 45
e 7 52
e 7 85
e 7 86
e 7 91
e 7 92
e 7 97
e 7 99
e 8 9
e 8 10
e 8 12
e 8 16
e 8 22
e 8 26
e 8 30
e 8 33
e 8 44
e 8 51
e 8 52
e 8 56
e 8 80
e 8 90
e 8 93
e 8 98
e 9 13
e 9 27
e 9 38
e 9 42
e 9 47
e 9 64
e 9 72
e 9 75
e 9 76
e 9 83
e 10 14
e 10 17
e 10 19
e 10 24
e 10 77
e 11 12
e 11 13
e 11 14
e 11 21
e 11 26
e 11 29
e 11 32
e 11 33
e 11 46
e 11 49
e 11 76
e 11 82
e 11 88
e 12 34
e 12 70
e 12 86
e 13 14
e 13 15
e 13 17
e 13 18
e 13 26
e 13 45
e 13 46
e 13 54
e 13 62
e 13 88
e 14 17
e 14 20
e 14 25
e 14 30
e 14 34
e 14 37
e 14 44
e 14 55
e 14 59
e 14 73
e 14 75
e 14 85
e 14 89
e 14 90
e 14 93
e 14 95
e 15 20
e 15 27
e 15 42
e 15 45
e 15 48
e 15 50
e 15 60
e 15 63
e 15 65
e 15 81
e 15 98
e 16 18
e 16 19
e 16 20
e 16 23
e 16 24
e 16 31
e 16 34
e 16 35
e 16 36
e 16 37
e 16 43
e 16 53
e 16 54
e 16 61
e 16 69
e 16 77
e 16 82
e 17 24
e 17 35
e 17 50
e 17 57
e 17 65
e 17 70
e 17 74
e 17 79
e 17 86
e 17 92
e 18 40
e 18 47
e 18 59
e 18 72
e 19 29
e 20 24
e 20 29
e 20 36
e 20 47
e 20 62
e 20 63
e 21 46
e 21 68
e 22 39
e 22 41
e 22 51
e 22 54
e 22 55
e 22 80
e 22 89
e 22 92
e 23 31
e 23 73
e 24 28
e 24 36
e 24 42
e 24 68
e 24 96
e 25 52
e 25 53
e 25 94
e 26 30
e 26 65
e 26 66
e 26 72
e 26 87
e 27 28
e 27 38
e 27 39
e 27 47
e 27 59
e 27 60
e 27 63
e 27 67
e 27 68
e 27 69
e 27 91
e 28 32
e 28 67
e 28 73
e 29 40
e 29 48
e 29 58
e 29 80
e 29 84
e 29 95
e 30 39
e 30 55
e 30 61
e 30 75
e 30 92
e 30 94
e 31 48
e 31 55
e 31 66
e 31 68
e 32 56
e 33 38
e 33 49
e 33 71
e 34 50
e 34 74
e 34 76
e 35 36
e 35 37
e 35 40
e 35 44
e 35 45
e 35 49
e 35 61
e 35 63
e 35 64
e 35 70
e 35 97
e 35 99
e 36 51
e 37 41
e 37 57
e 37 58
e 37 74
e 37 82
e 37 94
e 37 95
e 38 41
e 38 46
e 38 69
e 38 77
e 38 81
e 39 60
e 39 99
e 40 61
e 40 79
e 40 85
e 40 98
e 41 43
e 41 50
e 41 57
e 41 76
e 41 96
e 41 100
e 42 59
e 42 71
e 43 53
e 43 54
e 43 71
e 43 74
e 44 57
e 46 78
e 46 91
e 48 69
e 49 79
e 50 66
e 51 67
e 53 83
e 53 85
e 54 58
e 54 73
e 55 100
e 56 62
e 56 90
e 57 64
e 59 100
e 61 78
e 61 87
e 62 84
e 62 91
e 68 88
e 69 97
e 70 72
e 70 96
e 71 99
e 74 81
e 75 86
e 75 90
e 79 83
e 79 93
e 83 84
e 84 87
e 84 89
e 85 87
e 96 100
